NAME          
ROWS
 N  OBJ
 L  c1
 L  c2
 L  c3
 L  c4
COLUMNS
    MARKER    'MARKER'                 'INTORG'
    x[1]      c1        86
    x[1]      c2        249
    x[1]      c3        837
    x[1]      c4        865
    x[1]      OBJ       -188
    x[2]      c1        267
    x[2]      c2        890
    x[2]      c3        173
    x[2]      c4        987
    x[2]      OBJ       -163
    x[3]      c1        103
    x[3]      c2        404
    x[3]      c3        269
    x[3]      c4        562
    x[3]      OBJ       -581
    x[4]      c1        914
    x[4]      c2        433
    x[4]      c3        903
    x[4]      c4        75
    x[4]      OBJ       -637
    x[5]      c1        91
    x[5]      c2        4
    x[5]      c3        811
    x[5]      c4        886
    x[5]      OBJ       -604
    x[6]      c1        547
    x[6]      c2        974
    x[6]      c3        454
    x[6]      c4        895
    x[6]      OBJ       -315
    x[7]      c1        273
    x[7]      c2        766
    x[7]      c3        793
    x[7]      c4        30
    x[7]      OBJ       -365
    x[8]      c1        582
    x[8]      c2        162
    x[8]      c3        738
    x[8]      c4        608
    x[8]      OBJ       -39
    x[9]      c1        659
    x[9]      c2        554
    x[9]      c3        384
    x[9]      c4        184
    x[9]      OBJ       -385
    x[10]     c1        731
    x[10]     c2        47
    x[10]     c3        416
    x[10]     c4        194
    x[10]     OBJ       -843
    x[11]     c1        658
    x[11]     c2        121
    x[11]     c3        959
    x[11]     c4        666
    x[11]     OBJ       -346
    x[12]     c1        274
    x[12]     c2        653
    x[12]     c3        163
    x[12]     c4        619
    x[12]     OBJ       -222
    x[13]     c1        325
    x[13]     c2        82
    x[13]     c3        567
    x[13]     c4        959
    x[13]     OBJ       -612
    x[14]     c1        743
    x[14]     c2        838
    x[14]     c3        993
    x[14]     c4        258
    x[14]     OBJ       -704
    x[15]     c1        942
    x[15]     c2        469
    x[15]     c3        498
    x[15]     c4        52
    x[15]     OBJ       -514
    x[16]     c1        146
    x[16]     c2        379
    x[16]     c3        502
    x[16]     c4        326
    x[16]     OBJ       -579
    x[17]     c1        750
    x[17]     c2        618
    x[17]     c3        195
    x[17]     c4        809
    x[17]     OBJ       -726
    x[18]     c1        598
    x[18]     c2        873
    x[18]     c3        705
    x[18]     c4        278
    x[18]     OBJ       -613
    x[19]     c1        869
    x[19]     c2        1
    x[19]     c3        10
    x[19]     c4        758
    x[19]     OBJ       -25
    x[20]     c1        55
    x[20]     c2        281
    x[20]     c3        597
    x[20]     c4        185
    x[20]     OBJ       -514
    x[21]     c1        748
    x[21]     c2        543
    x[21]     c3        295
    x[21]     c4        24
    x[21]     OBJ       -286
    x[22]     c1        727
    x[22]     c2        524
    x[22]     c3        249
    x[22]     c4        324
    x[22]     OBJ       -982
    x[23]     c1        802
    x[23]     c2        422
    x[23]     c3        926
    x[23]     c4        991
    x[23]     OBJ       -187
    x[24]     c1        709
    x[24]     c2        231
    x[24]     c3        501
    x[24]     c4        687
    x[24]     OBJ       -46
    x[25]     c1        418
    x[25]     c2        397
    x[25]     c3        447
    x[25]     c4        500
    x[25]     OBJ       -98
    x[26]     c1        605
    x[26]     c2        393
    x[26]     c3        455
    x[26]     c4        875
    x[26]     OBJ       -772
    x[27]     c1        178
    x[27]     c2        995
    x[27]     c3        965
    x[27]     c4        255
    x[27]     OBJ       -371
    x[28]     c1        168
    x[28]     c2        294
    x[28]     c3        840
    x[28]     c4        715
    x[28]     OBJ       -187
    x[29]     c1        937
    x[29]     c2        889
    x[29]     c3        768
    x[29]     c4        675
    x[29]     OBJ       -640
    x[30]     c1        739
    x[30]     c2        16
    x[30]     c3        709
    x[30]     c4        484
    x[30]     OBJ       -66
RHS
    rhs       c1        7822
    rhs       c2        6751
    rhs       c3        8561
    rhs       c4        7863
RANGES
BOUNDS
 BV bounds    x[1]
 BV bounds    x[2]
 BV bounds    x[3]
 BV bounds    x[4]
 BV bounds    x[5]
 BV bounds    x[6]
 BV bounds    x[7]
 BV bounds    x[8]
 BV bounds    x[9]
 BV bounds    x[10]
 BV bounds    x[11]
 BV bounds    x[12]
 BV bounds    x[13]
 BV bounds    x[14]
 BV bounds    x[15]
 BV bounds    x[16]
 BV bounds    x[17]
 BV bounds    x[18]
 BV bounds    x[19]
 BV bounds    x[20]
 BV bounds    x[21]
 BV bounds    x[22]
 BV bounds    x[23]
 BV bounds    x[24]
 BV bounds    x[25]
 BV bounds    x[26]
 BV bounds    x[27]
 BV bounds    x[28]
 BV bounds    x[29]
 BV bounds    x[30]
ENDATA
